0000000000000000
0000000000000000
0001111111110000
0000000000011000
0000000000001100
0000000000001100
0000000000001100
0000000000001100
0000000000001100
0000000000001100
0001111111111100
0000000000000000
0000000000000000
0000000000000000
0000000000000000
0000000000000000